c Lingeling SAT Solver
c 
c Version ala b02aa1a04343558c4252b5f4a723be021964f652
c 
c Copyright (C) 2010-2012 Armin Biere JKU Linz Austria.
c All rights reserved.
c 
c released Sat Oct 13 14:05:26 CEST 2012
c compiled Sat Feb 16 02:48:12 EST 2013
c 
c gcc (Debian 4.4.5-8) 4.4.5
c -Wall -O3 -DNLGLOG -DNDEBUG -DNCHKSOL -DNLGLPICOSAT 
c Linux greencar2 2.6.32-5-amd64 x86_64
c 
c reading input file p36.cnf
c no embedded options
c found 'p cnf 221565 690061' header
c read 221565 variables, 690061 clauses, 1435859 literals in 0.0 seconds
c
c feature vars 221565
c feature lits.total 1435859
c feature lits.pos 763720
c feature lits.neg 672139
c feature clauses.total 690061
c feature clauses.unit 82287
c feature clauses.bin 485350
c feature clauses.trn 121024
c feature clauses.lrg 1400
c feature cog.val.min 1
c feature cog.val.avg 98771
c feature cog.val.max 213956
c feature cog.var.min 1
c feature cog.var.avg 110783
c feature cog.var.max 221564
c
c
c --abstime=0
c --acts=2
c --actavgmax=120
c --actstdmin=20
c --actstdmax=80
c --agile=23
c --bias=2
c --block=1
c --blkrtc=0
c --blkclslim=2000
c --blkocclim=2000
c --blkmaxeff=2147483647
c --blkmineff=10000000
c --blkreleff=20
c --card=0
c --cce=3
c --ccemaxeff=100000000
c --ccemineff=5000000
c --ccereleff=3
c --check=0
c --cgrclsr=1
c --cgrmaxority=20
c --cgrmaxeff=8000000
c --cgrmineff=200000
c --cgreleff=1
c --cgrexteq=1
c --cgrextand=1
c --cgrextunits=1
c --cgrextite=1
c --cgrextxor=1
c --cliff=1
c --cliffreleff=8
c --cliffmineff=10000000
c --cliffmaxeff=100000000
c --compact=0
c --decompose=1
c --defragint=10000000
c --defragfree=50
c --elim=1
c --elmrtc=0
c --elmblk=1
c --elmclslim=1000
c --elmocclim=1000
c --elmaxeff=100000000
c --elmineff=5000000
c --elmreleff=10
c --sleeponabort=0
c --exitonabort=0
c --flipping=1
c --flipint=2
c --flipdur=50
c --fliptop=1
c --force=0
c --gauss=1
c --gaussextrall=1
c --gaussmaxor=20
c --gaussexptrn=1
c --gaussmaxeff=50000000
c --gaussmineff=2000000
c --gaussreleff=2
c --gluescale=2
c --gluekeep=0
c --inprocessing=1
c --cintinc=10000
c --irrlim=20
c --lift=1
c --lftmaxeff=20000000
c --lftmineff=500000
c --lftreleff=6
c --lhbr=1
c --lkhd=1
c --clim=-1
c --mocint=1000
c --move=2
c --log=-1
c --otfs=1
c --phase=0
c --phaseneginit=0
c --plain=0
c --probe=1
c --prbasicmaxeff=100000000
c --prbasicmineff=1000000
c --prbasicreleff=10
c --prbasic=1
c --prbasicroundlim=9
c --queuemergelim=10000
c --queuefactor=833
c --queueinc=20
c --rmincpen=4
c --seed=0
c --smallirr=90
c --smallve=1
c --smallvevars=12
c --randec=1
c --randecint=1000
c --redfixed=0
c --redlbound=0
c --redlexpfac=10
c --redldoutfac=0
c --redloutinc=10000
c --redlinit=1000
c --redlinc=1000
c --redinoutinc=100
c --redlmininc=10
c --redlmaxinc=200
c --redlminrel=10
c --redlmaxrel=300
c --redlminabs=500
c --redlmaxabs=1000000
c --reduce=1
c --restart=2
c --restartint=5
c --rstinoutinc=110
c --simplify=1
c --simpdelay=100
c --simpen=4
c --sizepen=1000000
c --sizemaxpen=3
c --sortlits=0
c --syncint=111111
c --termint=122222
c --ternres=1
c --ternresrtc=0
c --trnrmineff=4000000
c --trnrmaxeff=40000000
c --trnreleff=10
c --transred=1
c --trdmineff=100000
c --trdmaxeff=2000000
c --trdreleff=10
c --unhide=1
c --unhdextstamp=1
c --unhdhbr=0
c --unhdmaxeff=20000000
c --unhdmineff=1000000
c --unhdreleff=4
c --unhdlnpr=3
c --unhdroundlim=5
c --verbose=1
c --witness=1
c [limits] no conflict limit
c [limits] simplification delayed by 100 to 100 conflicts
c 
c  seconds         irredundant          redundant clauses agility   height
c          variables clauses conflicts large binary ternary    glue         MB
c 
c *    0.0  123824   522712         0       0      0     0  62  0.0   0.0   41
c [cut-width] 175055, max 267192, min4 122340 at 75%, min10 29800 at 85%
c [decision-order] bias 1, old 1
c [queue-schedule-all-variables]
c s    0.0  123824   522712         0       0      0     0  62  0.0   0.0   41
c [simplification-1] limit hit at 100 conflicts
c [simplification-1] simplification penalty of 4
c [ternres-1] limit 4000000 with penalty 0 = 0 + 0
c [ternres-1] all 123824 free variables schedulable
c [ternres-1] 0 ternary resolvents (0 bin, 0 trn)
c [ternres-1] 30065 variables remain 24% (93759 retained)
c [gauss-1] limit 2000000 penalty 0 = 0 + 0
c [gauss-1] extracted 162971 xors of average arity 2.0
c [gauss-1] connected 325944 occurrences of 100959 variables (average 3.2)
c [gauss-1] limit 2000000 penalty 0 = 0 + 0
c [gauss-1] exported 0 unary, 0 binary and 0 ternary equations
c G    1.1  123824   503018       100     100      0     0  70  3.7 323.8   28
c d    1.4   57558   263262       100     100      0     0  70  3.7 323.8   21
c [basicprobe-1] limit 1000000 penalty 0 = 0 + 0
c [basicprobe-1-0] 3541 probes remain 6% after last round
c [basicprobe-1-0] removed 0 variables, found 4481 hbrs
c p    1.5   57558   263262       100     100   4481     0  70  3.7 323.8   25
c [cgrclsr-1] limit 200000 penalty 0 = 0 + 0
c [cgrclsr-1] all 57558 free variables schedulable
c [cgrclsr-1] fully completed congruence closure
c [lift-1] limit 500000 with penalty 0 = 0 + 0
c [lift-1] using 57558 probes 100%
c [lift-1] 57531 variables remain 100% (27 retained)
c [cliff-1] limit of 10000000 steps penalty 0 = 0 + 0
c [cliff-1] failed 0, lifted 0
c [unhide-1] limit 1000000 with penalty 0 = 0 + 0
c [unhide-1-1] 0 units, 15 failed, 21798 tauts, 0 hbrs, 71 literals
c u    2.6   57552   241464       100      99  22998     1  70  3.7 323.8   25
c [transred-1] limit 100000 with penalty 0 = 0 + 0
c t    2.6   57552   241464       100      99  22994     1  70  3.7 323.8   25
c [block-1] scheduling all variables this time
c [block-1] scheduled 57552 variables 100%
c [block-1] limit of 10000000 steps penalty 0 = 0 + 0
c [block-1] fully completed blocked clause elimination
c [block-1] transition to [ all 0 rem 0 ] state
c [block-1] eliminated 4000 blocked clauses
c k    2.9   57552   237436       100      99  22994  4001  70  3.7 323.8   21
c [cce-1] scheduling all variables this time
c [cce-1] limit of 10000000 steps penalty 0 = 0 + 0
c [cce-1] incomplete covered clause elimination 52812 not tried 92%
c [cce-1] transition to [ all 1 rem 1 ] state
c [cce-1] eliminated 100 covered clauses
c E    3.6   57548   237336       100      99  31789  4001  70  3.7 323.8   21
c [elim-1] scheduling all variables this time
c [elim-1] scheduled 57548 variables 100%
c [elim-1] limit of 5000000 steps penalty 0 = 0 + 0
c [elim-1] incomplete variable elimination 43407 not tried 75%
c [elim-1] transition to [ all 1 rem 1 ] state
c [elim-1] eliminated 5792 = 10% variables out of 57548
c e    5.1   51756   233823       100      42  11052   493  70  3.7 323.8   21
c [phase-1] phase bias: 1648 positive 14%, 9945 negative 86%
c [simplification-1] removed 72068 variables 58%
c [simplification-1] limit increments divided by 30
c [simplification-1] arithmetic increase of conflict limit interval by 333
c [simplification-1] new irredundant limit 2276691
c [simplification-1] new conflict limit 433
c [simplification-1] simplification penalty reduced to 3
c R    5.4   51756   233823       411     322  11061   515  12  5.6 317.2   26
c [simplification-2] limit hit at 433 conflicts
c [simplification-2] simplification penalty of 3
c [ternres-2] limit 2000000 with penalty 1 = 1 + 0
c [ternres-2] 12543 schedulable variables 24%
c [ternres-2] 9 ternary resolvents (0 bin, 9 trn)
c [ternres-2] fully completed ternary resolution
c T    5.4   51756   233823       433     336  11064   528   9  5.5 318.3   26
c [gauss-2] limit 1000000 penalty 1 = 1 + 0
c [gauss-2] extracted 378 xors of average arity 3.0
c [gauss-2] connected 1134 occurrences of 915 variables (average 1.2)
c [gauss-2] limit 1000000 penalty 1 = 1 + 0
c [gauss-2] fully completed
c [gauss-2] exported 0 unary, 0 binary and 0 ternary equations
c G    5.6   51756   233823       433     336  11064   528   9  5.5 318.3   21
c [basicprobe-2] limit 500000 penalty 1 = 1 + 0
c [basicprobe-2-0] 3662 probes remain 7% after last round
c [basicprobe-2-0] removed 0 variables, found 1143 hbrs
c p    5.8   51756   233823       433     336  12207   527   9  5.5 318.3   25
c [cgrclsr-2] limit 100000 penalty 1 = 1 + 0
c [cgrclsr-2] all 51756 free variables schedulable
c [cgrclsr-2] fully completed congruence closure
c [lift-2] limit 250000 with penalty 1 = 1 + 0
c [lift-2] using 51730 probes 100%
c [lift-2] 51711 variables remain 100% (45 retained)
c [cliff-2] limit of 5000000 steps penalty 1 = 1 + 0
c [cliff-2] failed 0, lifted 0
c [unhide-2] limit 1000000 with penalty 0 = 0 + 0
c [unhide-2-2] 0 units, 0 failed, 1734 tauts, 0 hbrs, 125 literals
c u    6.5   51756   233818       433     336  10871   525   9  5.5 318.3   25
c [transred-3] limit 100000 with penalty 0 = 0 + 0
c t    6.5   51756   233816       433     336  10865   525   9  5.5 318.3   25
c [block-2] scheduling all variables this time
c [block-2] scheduled 51756 variables 100%
c [block-2] limit of 10000000 steps penalty 0 = 0 + 0
c [block-2] fully completed blocked clause elimination
c [block-2] transition to [ all 0 rem 0 ] state
c [block-2] eliminated 0 blocked clauses
c [cce-2] 49372 variables 95% will be scheduled this time
c [cce-2] limit of 10000000 steps penalty 0 = 0 + 0
c [cce-2] 48845 variables 94% remain to be tried next time
c [cce-2] transition to [ all 0 rem 1 ] state
c [cce-2] eliminated 347 covered clauses
c E    7.3   51756   233469       433     336  11231   525   9  5.5 318.3   21
c [elim-2] 43364 variables 84% will be scheduled this time
c [elim-2] scheduled 43364 variables 84%
c [elim-2] limit of 5000000 steps penalty 0 = 0 + 0
c [elim-2] 33402 variables 65% remain to be tried next time
c [elim-2] transition to [ all 0 rem 1 ] state
c [elim-2] eliminated 911 = 2% variables out of 51756
c e    8.9   50845   233085       433     332   8319   524   9  5.5 318.3   21
c [phase-2] phase bias: 3 positive 75%, 1 negative 25%
c [simplification-2] removed 911 variables 1%
c [simplification-2] no reduction of limit increments
c [simplification-2] arithmetic increase of conflict limit interval by 10000
c [simplification-2] new irredundant limit 2276691
c [simplification-2] new conflict limit 10766
c [simplification-2] simplification penalty reduced to 2
c R    9.4   50845   233085       977     784   8348   580   5  5.6 240.3   26
c -    9.6   50845   233085      1245     500   8359   618   3  5.5 210.5   26
c R   10.0   50845   233085      2274    1447   8378   669  11  6.8 231.5   26
c 1   10.9   50845   233085      3642    2595   8446   802   5  6.5 214.5   26
c 
c  seconds         irredundant          redundant clauses agility   height
c          variables clauses conflicts large binary ternary    glue         MB
c 
c blkd: 2 bces, 4000 removed, 1373031 resolutions, 3847276 steps
c blkd: 4000 blocking literals 1%, 0 pure
c cces: 2 cces, 430 eliminated, 430 ate 100%, 0 abce 0%
c cces: 10530 probed, 3 lifted, 4 failed
c clff: 2 cliffs, 0 lifted, 0 failed
c clff: 6030 decisions, 15013627 steps
c clls: 1 sat, 0 simp, 0 freeze, 0 melt
c clls: 2125920 add, 0 assume,, 0 deref, 0 failed
c clls: 0 cassume, 0 mosat
c coll: 12 gcs, 0 rescored clauses
c cgrs: 2 count, 300000 esteps, 57785 csteps
c cgrs: 0 eqs, 0 units
c cgrs: 0 matched (0 ands 0%, 0 xors 0%, 0 ites 0%)
c cgrs: 0 simplified (0 ands 0%, 0 xors 0%, 0 ites 0%)
c cgrs: 1794 extracted (1539 ands 86%, 255 xors 14%, 0 ites 0%)
c dcps: 2 decompositions, 66266 equivalent 30%
c decs: 55730 decision, 57 random 0.102%
c decs: 14497 flipped 26.013% (in 27 phases)
c elms: 2 elims, 6703 eliminated 3%
c elms: 6703 small 100%, 0 large 0%
c elms: 24227 tried small, 6703 succeeded 28%, 17524 failed 72%
c elms: 0 subsumed, 0 strengthened, 0 blocked
c elms: 312106 copies, 216001 resolutions, 649631 ipos
c elms: 0 subchks, 0 strchks
c frcs: 0 computed, 27.7 - 72.3 average min-cut range
c gaus: 2 extractions, 163349 extracted, 2.0 size, 3 max
c gaus: exported 0 units, 0 binary and 0 ternary equations
c gaus: 0 gc, 6000248 steps, 3000124 extr 50%, 2252018 elim 38%
c glue: 6.5 avg, 2.6 scaled avg
c glue: 0 maxredglue=15 (0%)
c lift: 2 phases, 276 probed (92 level1 33%, 184 level2 67%)
c lift: 0 units, 0 equivalences, 0 implications
c hbrs: 33287 hbrs = 33287 trn 100% + 0 lrg 0%, 1 sub 0%
c lrnd: 3600 clauses, 2212 uips 61%, 20.8 length, 6.5 glue
c ints: 221 luby (23017 steps), 0 inout (0 steps)
c mins: 75007 learned lits, 6% minimized
c move: moved 4430, 430 binary 10%, 4000 ternary 90%
c otfs: str 119 dyn (89 red, 30 irr) 42 drv 35%, 77 rst 65%
c otfs: sub 0 dyn (0 red, 0 irr)
c phas: 2 computed, 11704 set, 1651 pos (14%), 10053 neg (86%)
c prbs: 2 basic, 1658 probed, 0 failed, 0 lifted
c prps: 12414982 props, 126 props/dec
c prps: 56% srch, 44% simp, 0% lkhd
c psns: 252676 searches, 37751 hits, 15% hit rate
c queu: 15781 new, 6359 del, 120 maximum priority
c queu: 9408 merged, 886 collected, 2 gcs
c queu: 3719 deprioritized, 25.2 lines on average
c reds: 1 count, 0 reset, 1 acts 100%, 0 exp 0%
c reds: 1 arithmetic 100%, 1 double 100%
c rmbd: 5 removed, 0 red 0%
c rsts: 189 restarts 86%, 31 skipped 14%
c rsts: 25 kept 13.2% average 41.8%
c simp: 2 count (0 ilim 0%, 0 plim 0%, 2 clim 100%)
c trnr: 2 count, 0 bin, 9 trn, 5029557 steps
c tops: 97751 fixed 44%, 0 iterations
c trds: 4 transitive reductions, 12 removed, 0 failed
c trds: 194 nodes, 265 edges, 201821 steps
c unhd: 2 count, 2 rounds, 2465679 steps
c unhd: 0 non-trivial sccs of average size 0.0
c unhd: 0 units, 0 bin, 0 trn, 0 lrg
c unhd: 15 failed, 15 stamp, 0 lits, 0 bin, 0 trn, 0 lrg
c unhd: 23532 tauts, 0 bin 0%, 1 trn 0%, 0 lrg 0%
c unhd: 23532 tauts, 23531 stamp 100%, 1734 red 7%
c unhd: 0 hbrs, 0 trn 0%, 0 lrg 0%, 0 red 0%
c unhd: 196 strd, 0 bin 0%, 1 trn 1%, 195 lrg 99%, 196 red 100%
c vars: 50845 remaining 23% and 170720 removed 77% out of 221565
c vars: 97751 fixed 44%, 6703 eliminated 3%, 66266 equivalent 30%
c vsts: 59459657 visits, 58% srch, 42% simp, 0% lkhd
c vsts: 4.9 search visits per propagation 9466.9 per conflict
c wchs: 8246312 pushed, 3703670 enlarged, 20 defrags
c 
c scaledglue  added       reduced       forcing      resolved     conflicts
c 
c all      3171 100       500 100     14035 100      6173 100       431 100
c 
c  0          0   0         0   0         0   0         0   0         0   0 
c  1         17   1         2   0       124   1        26   0         0   0 
c  2       1311  41       187  37      7651  55      2222  36       134  31 
c  3       1135  36<      214  43<     4707  34<     2459  40<      192  45<
c  4        503  16        79  16      1231   9      1093  18        73  17 
c  5        131   4        10   2       223   2       250   4        23   5 
c  6         52   2         4   1        71   1        88   1         8   2 
c  7          9   0         2   0        10   0        13   0         0   0 
c  8         12   0         1   0        17   0        21   0         1   0 
c  9          1   0         1   0         1   0         1   0         0   0 
c 10          0   0         0   0         0   0         0   0         0   0 
c 11          0   0         0   0         0   0         0   0         0   0 
c 12          0   0         0   0         0   0         0   0         0   0 
c 13          0   0         0   0         0   0         0   0         0   0 
c 14          0   0         0   0         0   0         0   0         0   0 
c 15          0   0         0   0         0   0         0   0         0   0 
c 
c avg             2.9           2.9           2.6           3.0           3.0
c std             1.0           0.9           0.8           1.0           1.0
c 
c 55730 decisions, 3642 conflicts, 334.6 conflicts/sec
c 12414982 propagations, 1.1 megaprops/sec
c 10.9 seconds, 48.7 MB
c 
c    0.228   2% analysis
c    0.508   5% block
c    0.020   0% bump
c    0.000   0% card
c    1.300  12% cce
c    0.856   8% cliff
c    0.024   0% cutwidth
c    0.108   1% decide
c    0.000   0% force
c    0.904   8% gc
c    0.328   3% cgrclsr
c    0.400   4% decomp
c    0.236   2% defrag
c    3.172  29% elim
c    1.108  10% gauss
c    0.304   3% lift
c    0.040   0% mincls
c    0.080   1% phase
c    0.152   1% probe
c    0.004   0% reduce
c    0.180   2% restart
c    0.144   1% ternres
c    0.020   0% transred
c    0.336   3% unhide
c ==================================
c    0.032   0% preprocessing     0%
c    8.853  81% inprocessing    100%
c ==================================
c    8.885  82% simplifying
c    0.000   0% lookahead
c    1.988  18% search
c ==================================
c   10.885 100% all
c
s SATISFIABLE
